; Options: -in -smt2
(set-option :produce-unsat-assumptions true)

(declare-fun start!1231 () Bool)

(assert start!1231)

(declare-fun b!5658 () Bool)

(declare-fun res!4525 () Bool)

(declare-fun e!3009 () Bool)

(assert (=> b!5658 (=> (not res!4525) (not e!3009))))

(declare-datatypes ((array!482 0))(
  ( (array!483 (arr!213 (Array (_ BitVec 32) (_ FloatingPoint 11 53))) (size!213 (_ BitVec 32))) )
))
(declare-fun fq!78 () array!482)

(declare-fun fqInv!0 (array!482) Bool)

(assert (=> b!5658 (= res!4525 (fqInv!0 fq!78))))

(declare-fun res!4524 () Bool)

(assert (=> start!1231 (=> (not res!4524) (not e!3009))))

(declare-fun jz!70 () (_ BitVec 32))

(declare-fun qq!74 () array!482)

(assert (=> start!1231 (= res!4524 (and (bvsle #b00000000000000000000000000000000 jz!70) (bvslt jz!70 #b00000000000000000000000000010100) (= (size!213 qq!74) #b00000000000000000000000000010100)))))

(assert (=> start!1231 e!3009))

(assert (=> start!1231 true))

(declare-fun array_inv!163 (array!482) Bool)

(assert (=> start!1231 (array_inv!163 qq!74)))

(assert (=> start!1231 (array_inv!163 fq!78)))

(declare-fun b!5656 () Bool)

(declare-fun res!4526 () Bool)

(assert (=> b!5656 (=> (not res!4526) (not e!3009))))

(declare-fun qqInv!0 (array!482) Bool)

(assert (=> b!5656 (= res!4526 (qqInv!0 qq!74))))

(declare-fun b!5657 () Bool)

(declare-fun res!4523 () Bool)

(assert (=> b!5657 (=> (not res!4523) (not e!3009))))

(declare-fun i!327 () (_ BitVec 32))

(assert (=> b!5657 (= res!4523 (and (fp.leq (fp #b0 #b00000000000 #b0000000000000000000000000000000000000000000000000000) (select (store ((as const (Array (_ BitVec 32) (_ FloatingPoint 11 53))) (fp #b0 #b00000000000 #b0000000000000000000000000000000000000000000000000000)) #b00000000000000000000000000000000 (fp.mul roundNearestTiesToEven (fp #b0 #b01111111111 #b1001001000011111101101000000000000000000000000000000) (select (arr!213 qq!74) #b00000000000000000000000000000000))) #b00000000000000000000000000000000)) (fp.leq (select (store ((as const (Array (_ BitVec 32) (_ FloatingPoint 11 53))) (fp #b0 #b00000000000 #b0000000000000000000000000000000000000000000000000000)) #b00000000000000000000000000000000 (fp.mul roundNearestTiesToEven (fp #b0 #b01111111111 #b1001001000011111101101000000000000000000000000000000) (select (arr!213 qq!74) #b00000000000000000000000000000000))) #b00000000000000000000000000000000) (fp #b0 #b01111111110 #b1001001000011111101100001101101111000000100110000000)) (fp.leq (fp #b0 #b00000000000 #b0000000000000000000000000000000000000000000000000000) (select (store (store ((as const (Array (_ BitVec 32) (_ FloatingPoint 11 53))) (fp #b0 #b00000000000 #b0000000000000000000000000000000000000000000000000000)) #b00000000000000000000000000000000 (fp.mul roundNearestTiesToEven (fp #b0 #b01111111111 #b1001001000011111101101000000000000000000000000000000) (select (arr!213 qq!74) #b00000000000000000000000000000000))) #b00000000000000000000000000000001 (fp.add roundNearestTiesToEven (fp.mul roundNearestTiesToEven (fp #b0 #b01111111111 #b1001001000011111101101000000000000000000000000000000) (select (arr!213 qq!74) #b00000000000000000000000000000001)) (fp.mul roundNearestTiesToEven (fp #b0 #b01111100111 #b0100010001000010110100000000000000000000000000000000) (select (arr!213 qq!74) #b00000000000000000000000000000000)))) #b00000000000000000000000000000001)) (fp.leq (select (store (store ((as const (Array (_ BitVec 32) (_ FloatingPoint 11 53))) (fp #b0 #b00000000000 #b0000000000000000000000000000000000000000000000000000)) #b00000000000000000000000000000000 (fp.mul roundNearestTiesToEven (fp #b0 #b01111111111 #b1001001000011111101101000000000000000000000000000000) (select (arr!213 qq!74) #b00000000000000000000000000000000))) #b00000000000000000000000000000001 (fp.add roundNearestTiesToEven (fp.mul roundNearestTiesToEven (fp #b0 #b01111111111 #b1001001000011111101101000000000000000000000000000000) (select (arr!213 qq!74) #b00000000000000000000000000000001)) (fp.mul roundNearestTiesToEven (fp #b0 #b01111100111 #b0100010001000010110100000000000000000000000000000000) (select (arr!213 qq!74) #b00000000000000000000000000000000)))) #b00000000000000000000000000000001) (fp #b0 #b01111101000 #b0001101000100000100011001001010011001110101111100000)) (fp.leq (fp #b0 #b00000000000 #b0000000000000000000000000000000000000000000000000000) (select (store (store (store ((as const (Array (_ BitVec 32) (_ FloatingPoint 11 53))) (fp #b0 #b00000000000 #b0000000000000000000000000000000000000000000000000000)) #b00000000000000000000000000000000 (fp.mul roundNearestTiesToEven (fp #b0 #b01111111111 #b1001001000011111101101000000000000000000000000000000) (select (arr!213 qq!74) #b00000000000000000000000000000000))) #b00000000000000000000000000000001 (fp.add roundNearestTiesToEven (fp.mul roundNearestTiesToEven (fp #b0 #b01111111111 #b1001001000011111101101000000000000000000000000000000) (select (arr!213 qq!74) #b00000000000000000000000000000001)) (fp.mul roundNearestTiesToEven (fp #b0 #b01111100111 #b0100010001000010110100000000000000000000000000000000) (select (arr!213 qq!74) #b00000000000000000000000000000000)))) #b00000000000000000000000000000010 (fp.add roundNearestTiesToEven (fp.add roundNearestTiesToEven (fp.mul roundNearestTiesToEven (fp #b0 #b01111111111 #b1001001000011111101101000000000000000000000000000000) (select (arr!213 qq!74) #b00000000000000000000000000000010)) (fp.mul roundNearestTiesToEven (fp #b0 #b01111100111 #b0100010001000010110100000000000000000000000000000000) (select (arr!213 qq!74) #b00000000000000000000000000000001))) (fp.mul roundNearestTiesToEven (fp #b0 #b01111001111 #b1000010001101001100010000000000000000000000000000000) (select (arr!213 qq!74) #b00000000000000000000000000000000)))) #b00000000000000000000000000000010)) (fp.leq (select (store (store (store ((as const (Array (_ BitVec 32) (_ FloatingPoint 11 53))) (fp #b0 #b00000000000 #b0000000000000000000000000000000000000000000000000000)) #b00000000000000000000000000000000 (fp.mul roundNearestTiesToEven (fp #b0 #b01111111111 #b1001001000011111101101000000000000000000000000000000) (select (arr!213 qq!74) #b00000000000000000000000000000000))) #b00000000000000000000000000000001 (fp.add roundNearestTiesToEven (fp.mul roundNearestTiesToEven (fp #b0 #b01111111111 #b1001001000011111101101000000000000000000000000000000) (select (arr!213 qq!74) #b00000000000000000000000000000001)) (fp.mul roundNearestTiesToEven (fp #b0 #b01111100111 #b0100010001000010110100000000000000000000000000000000) (select (arr!213 qq!74) #b00000000000000000000000000000000)))) #b00000000000000000000000000000010 (fp.add roundNearestTiesToEven (fp.add roundNearestTiesToEven (fp.mul roundNearestTiesToEven (fp #b0 #b01111111111 #b1001001000011111101101000000000000000000000000000000) (select (arr!213 qq!74) #b00000000000000000000000000000010)) (fp.mul roundNearestTiesToEven (fp #b0 #b01111100111 #b0100010001000010110100000000000000000000000000000000) (select (arr!213 qq!74) #b00000000000000000000000000000001))) (fp.mul roundNearestTiesToEven (fp #b0 #b01111001111 #b1000010001101001100010000000000000000000000000000000) (select (arr!213 qq!74) #b00000000000000000000000000000000)))) #b00000000000000000000000000000010) (fp #b0 #b01111010000 #b1100110001001011101000011101001010011001111110100000)) (fp.leq (fp #b0 #b00000000000 #b0000000000000000000000000000000000000000000000000000) (select (store (store (store (store ((as const (Array (_ BitVec 32) (_ FloatingPoint 11 53))) (fp #b0 #b00000000000 #b0000000000000000000000000000000000000000000000000000)) #b00000000000000000000000000000000 (fp.mul roundNearestTiesToEven (fp #b0 #b01111111111 #b1001001000011111101101000000000000000000000000000000) (select (arr!213 qq!74) #b00000000000000000000000000000000))) #b00000000000000000000000000000001 (fp.add roundNearestTiesToEven (fp.mul roundNearestTiesToEven (fp #b0 #b01111111111 #b1001001000011111101101000000000000000000000000000000) (select (arr!213 qq!74) #b00000000000000000000000000000001)) (fp.mul roundNearestTiesToEven (fp #b0 #b01111100111 #b0100010001000010110100000000000000000000000000000000) (select (arr!213 qq!74) #b00000000000000000000000000000000)))) #b00000000000000000000000000000010 (fp.add roundNearestTiesToEven (fp.add roundNearestTiesToEven (fp.mul roundNearestTiesToEven (fp #b0 #b01111111111 #b1001001000011111101101000000000000000000000000000000) (select (arr!213 qq!74) #b00000000000000000000000000000010)) (fp.mul roundNearestTiesToEven (fp #b0 #b01111100111 #b0100010001000010110100000000000000000000000000000000) (select (arr!213 qq!74) #b00000000000000000000000000000001))) (fp.mul roundNearestTiesToEven (fp #b0 #b01111001111 #b1000010001101001100010000000000000000000000000000000) (select (arr!213 qq!74) #b00000000000000000000000000000000)))) #b00000000000000000000000000000011 (fp.add roundNearestTiesToEven (fp.add roundNearestTiesToEven (fp.add roundNearestTiesToEven (fp.mul roundNearestTiesToEven (fp #b0 #b01111111111 #b1001001000011111101101000000000000000000000000000000) (select (arr!213 qq!74) #b00000000000000000000000000000011)) (fp.mul roundNearestTiesToEven (fp #b0 #b01111100111 #b0100010001000010110100000000000000000000000000000000) (select (arr!213 qq!74) #b00000000000000000000000000000010))) (fp.mul roundNearestTiesToEven (fp #b0 #b01111001111 #b1000010001101001100010000000000000000000000000000000) (select (arr!213 qq!74) #b00000000000000000000000000000001))) (fp.mul roundNearestTiesToEven (fp #b0 #b01110110111 #b1000110011000101000101100000000000000000000000000000) (select (arr!213 qq!74) #b00000000000000000000000000000000)))) #b00000000000000000000000000000011)) (fp.leq (select (store (store (store (store ((as const (Array (_ BitVec 32) (_ FloatingPoint 11 53))) (fp #b0 #b00000000000 #b0000000000000000000000000000000000000000000000000000)) #b00000000000000000000000000000000 (fp.mul roundNearestTiesToEven (fp #b0 #b01111111111 #b1001001000011111101101000000000000000000000000000000) (select (arr!213 qq!74) #b00000000000000000000000000000000))) #b00000000000000000000000000000001 (fp.add roundNearestTiesToEven (fp.mul roundNearestTiesToEven (fp #b0 #b01111111111 #b1001001000011111101101000000000000000000000000000000) (select (arr!213 qq!74) #b00000000000000000000000000000001)) (fp.mul roundNearestTiesToEven (fp #b0 #b01111100111 #b0100010001000010110100000000000000000000000000000000) (select (arr!213 qq!74) #b00000000000000000000000000000000)))) #b00000000000000000000000000000010 (fp.add roundNearestTiesToEven (fp.add roundNearestTiesToEven (fp.mul roundNearestTiesToEven (fp #b0 #b01111111111 #b1001001000011111101101000000000000000000000000000000) (select (arr!213 qq!74) #b00000000000000000000000000000010)) (fp.mul roundNearestTiesToEven (fp #b0 #b01111100111 #b0100010001000010110100000000000000000000000000000000) (select (arr!213 qq!74) #b00000000000000000000000000000001))) (fp.mul roundNearestTiesToEven (fp #b0 #b01111001111 #b1000010001101001100010000000000000000000000000000000) (select (arr!213 qq!74) #b00000000000000000000000000000000)))) #b00000000000000000000000000000011 (fp.add roundNearestTiesToEven (fp.add roundNearestTiesToEven (fp.add roundNearestTiesToEven (fp.mul roundNearestTiesToEven (fp #b0 #b01111111111 #b1001001000011111101101000000000000000000000000000000) (select (arr!213 qq!74) #b00000000000000000000000000000011)) (fp.mul roundNearestTiesToEven (fp #b0 #b01111100111 #b0100010001000010110100000000000000000000000000000000) (select (arr!213 qq!74) #b00000000000000000000000000000010))) (fp.mul roundNearestTiesToEven (fp #b0 #b01111001111 #b1000010001101001100010000000000000000000000000000000) (select (arr!213 qq!74) #b00000000000000000000000000000001))) (fp.mul roundNearestTiesToEven (fp #b0 #b01110110111 #b1000110011000101000101100000000000000000000000000000) (select (arr!213 qq!74) #b00000000000000000000000000000000)))) #b00000000000000000000000000000011) (fp #b0 #b01110111001 #b0100100001001011101001000100011000011011101101111000)) (bvsle #b00000000000000000000000000000100 i!327) (bvsle i!327 jz!70) (= (size!213 fq!78) #b00000000000000000000000000010100)))))

(declare-fun b!5659 () Bool)

(assert (=> b!5659 (= e!3009 (and (bvslt i!327 jz!70) (not (= (bvand i!327 #b10000000000000000000000000000000) #b00000000000000000000000000000000)) (not (= (bvand i!327 #b10000000000000000000000000000000) (bvand (bvsub i!327 #b00000000000000000000000000000100) #b10000000000000000000000000000000)))))))

(assert (= (and start!1231 res!4524) b!5656))

(assert (= (and b!5656 res!4526) b!5657))

(assert (= (and b!5657 res!4523) b!5658))

(assert (= (and b!5658 res!4525) b!5659))

(declare-fun m!9629 () Bool)

(assert (=> b!5658 m!9629))

(declare-fun m!9631 () Bool)

(assert (=> start!1231 m!9631))

(declare-fun m!9633 () Bool)

(assert (=> start!1231 m!9633))

(declare-fun m!9635 () Bool)

(assert (=> b!5656 m!9635))

(declare-fun m!9637 () Bool)

(assert (=> b!5657 m!9637))

(declare-fun m!9639 () Bool)

(assert (=> b!5657 m!9639))

(declare-fun m!9641 () Bool)

(assert (=> b!5657 m!9641))

(declare-fun m!9643 () Bool)

(assert (=> b!5657 m!9643))

(declare-fun m!9645 () Bool)

(assert (=> b!5657 m!9645))

(declare-fun m!9647 () Bool)

(assert (=> b!5657 m!9647))

(declare-fun m!9649 () Bool)

(assert (=> b!5657 m!9649))

(declare-fun m!9651 () Bool)

(assert (=> b!5657 m!9651))

(declare-fun m!9653 () Bool)

(assert (=> b!5657 m!9653))

(declare-fun m!9655 () Bool)

(assert (=> b!5657 m!9655))

(declare-fun m!9657 () Bool)

(assert (=> b!5657 m!9657))

(declare-fun m!9659 () Bool)

(assert (=> b!5657 m!9659))

(check-sat (not b!5656) (not start!1231) (not b!5658))
(check-sat)
